
Gurobi 9.1.1 (win64) logging started Thu Jan 21 11:58:16 2021

Changed value of parameter LogFile to opt_samuel_kroger_2021_01_21_11_58_16.csv_2_4.log
   Prev:   Default: 
Gurobi Optimizer version 9.1.1 build v9.1.1rc0 (win64)
Thread count: 6 physical cores, 12 logical processors, using up to 12 threads
Optimize a model with 9 rows, 32 columns and 72 nonzeros
Model fingerprint: 0x2f0cf61e
Variable types: 0 continuous, 32 integer (32 binary)
Coefficient statistics:
  Matrix range     [1e+00, 2e+00]
  Objective range  [1e+00, 1e+00]
  Bounds range     [1e+00, 1e+00]
  RHS range        [4e+00, 4e+00]
Found heuristic solution: objective 4.0000000
Found heuristic solution: objective 6.0000000
Presolve removed 0 rows and 20 columns
Presolve time: 0.00s
Presolved: 9 rows, 12 columns, 32 nonzeros
Variable types: 0 continuous, 12 integer (8 binary)

Root relaxation: objective 1.200000e+01, 4 iterations, 0.00 seconds

    Nodes    |    Current Node    |     Objective Bounds      |     Work
 Expl Unexpl |  Obj  Depth IntInf | Incumbent    BestBd   Gap | It/Node Time

*    0     0               0      12.0000000   12.00000  0.00%     -    0s

Explored 0 nodes (4 simplex iterations) in 0.01 seconds
Thread count was 12 (of 12 available processors)

Solution count 3: 12 6 4 

Optimal solution found (tolerance 1.00e-04)
Best objective 1.200000000000e+01, best bound 1.200000000000e+01, gap 0.0000%

Gurobi 9.1.1 (win64) logging started Thu Jan 21 11:58:16 2021

Changed value of parameter LogFile to opt_samuel_kroger_2021_01_21_11_58_16.csv_2_4.log
   Prev:   Default: 
Gurobi Optimizer version 9.1.1 build v9.1.1rc0 (win64)
Thread count: 6 physical cores, 12 logical processors, using up to 12 threads
Optimize a model with 6 rows, 32 columns and 50 nonzeros
Model fingerprint: 0x84144927
Variable types: 0 continuous, 32 integer (32 binary)
Coefficient statistics:
  Matrix range     [1e+00, 2e+00]
  Objective range  [1e+00, 1e+00]
  Bounds range     [1e+00, 1e+00]
  RHS range        [4e+00, 4e+00]
Found heuristic solution: objective 8.0000000
Found heuristic solution: objective 10.0000000
Presolve removed 1 rows and 24 columns
Presolve time: 0.00s
Presolved: 5 rows, 8 columns, 12 nonzeros
Variable types: 0 continuous, 8 integer (4 binary)

Root relaxation: objective 1.200000e+01, 4 iterations, 0.00 seconds

    Nodes    |    Current Node    |     Objective Bounds      |     Work
 Expl Unexpl |  Obj  Depth IntInf | Incumbent    BestBd   Gap | It/Node Time

*    0     0               0      12.0000000   12.00000  0.00%     -    0s

Explored 0 nodes (4 simplex iterations) in 0.00 seconds
Thread count was 12 (of 12 available processors)

Solution count 3: 12 10 8 

Optimal solution found (tolerance 1.00e-04)
Best objective 1.200000000000e+01, best bound 1.200000000000e+01, gap 0.0000%
